p cnf 1090 2570
1 0
-235 65 0
-235 107 0
235 -65 -107 0
-236 77 0
-236 235 0
236 -77 -235 0
-237 33 0
-237 236 0
237 -33 -236 0
-238 224 0
-238 -237 0
238 -224 237 0
-239 44 0
-239 97 0
239 -44 -97 0
-240 87 0
-240 239 0
240 -87 -239 0
-241 54 0
-241 240 0
241 -54 -240 0
-242 196 0
-242 -241 0
242 -196 241 0
-243 -238 0
-243 -242 0
243 238 242 0
-244 220 0
-244 -221 0
244 -220 221 0
-245 -220 0
-245 221 0
245 220 -221 0
-246 -244 0
-246 -245 0
246 244 245 0
-247 218 0
-247 -219 0
247 -218 219 0
-248 -218 0
-248 219 0
248 218 -219 0
-249 -247 0
-249 -248 0
249 247 248 0
-250 -215 0
-250 234 0
250 215 -234 0
-251 215 0
-251 -234 0
251 -215 234 0
-252 -250 0
-252 -251 0
252 250 251 0
-253 216 0
-253 -217 0
253 -216 217 0
-254 -216 0
-254 217 0
254 216 -217 0
-255 -253 0
-255 -254 0
255 253 254 0
-256 -252 0
-256 255 0
256 252 -255 0
-257 249 0
-257 256 0
257 -249 -256 0
-258 252 0
-258 255 0
258 -252 -255 0
-259 -249 0
-259 258 0
259 249 -258 0
-260 -257 0
-260 -259 0
260 257 259 0
-261 252 0
-261 -255 0
261 -252 255 0
-262 249 0
-262 261 0
262 -249 -261 0
-263 -252 0
-263 -255 0
263 252 255 0
-264 -249 0
-264 263 0
264 249 -263 0
-265 -262 0
-265 -264 0
265 262 264 0
-266 260 0
-266 265 0
266 -260 -265 0
-267 -246 0
-267 266 0
267 246 -266 0
-268 246 0
-268 -266 0
268 -246 266 0
-269 -267 0
-269 -268 0
269 267 268 0
-270 90 0
-270 222 0
270 -90 -222 0
-271 223 0
-271 270 0
271 -223 -270 0
-272 100 0
-272 -222 0
272 -100 222 0
-273 223 0
-273 272 0
273 -223 -272 0
-274 110 0
-274 -222 0
274 -110 222 0
-275 -223 0
-275 274 0
275 223 -274 0
-276 80 0
-276 222 0
276 -80 -222 0
-277 -223 0
-277 276 0
277 223 -276 0
-278 -275 0
-278 -277 0
278 275 277 0
-279 -273 0
-279 278 0
279 273 -278 0
-280 -271 0
-280 279 0
280 271 -279 0
-281 89 0
-281 222 0
281 -89 -222 0
-282 223 0
-282 281 0
282 -223 -281 0
-283 99 0
-283 -222 0
283 -99 222 0
-284 223 0
-284 283 0
284 -223 -283 0
-285 109 0
-285 -222 0
285 -109 222 0
-286 -223 0
-286 285 0
286 223 -285 0
-287 79 0
-287 222 0
287 -79 -222 0
-288 -223 0
-288 287 0
288 223 -287 0
-289 -286 0
-289 -288 0
289 286 288 0
-290 -284 0
-290 289 0
290 284 -289 0
-291 -282 0
-291 290 0
291 282 -290 0
-292 -280 0
-292 291 0
292 280 -291 0
-293 280 0
-293 -291 0
293 -280 291 0
-294 -292 0
-294 -293 0
294 292 293 0
-295 222 0
-295 223 0
295 -222 -223 0
-296 -222 0
-296 223 0
296 222 -223 0
-297 -222 0
-297 -223 0
297 222 223 0
-298 222 0
-298 -223 0
298 -222 223 0
-299 -297 0
-299 -298 0
299 297 298 0
-300 -296 0
-300 299 0
300 296 -299 0
-301 -295 0
-301 300 0
301 295 -300 0
-302 88 0
-302 222 0
302 -88 -222 0
-303 223 0
-303 302 0
303 -223 -302 0
-304 98 0
-304 -222 0
304 -98 222 0
-305 223 0
-305 304 0
305 -223 -304 0
-306 108 0
-306 -222 0
306 -108 222 0
-307 -223 0
-307 306 0
307 223 -306 0
-308 78 0
-308 222 0
308 -78 -222 0
-309 -223 0
-309 308 0
309 223 -308 0
-310 -307 0
-310 -309 0
310 307 309 0
-311 -305 0
-311 310 0
311 305 -310 0
-312 -303 0
-312 311 0
312 303 -311 0
-313 301 0
-313 -312 0
313 -301 312 0
-314 -301 0
-314 312 0
314 301 -312 0
-315 -313 0
-315 -314 0
315 313 314 0
-316 -294 0
-316 315 0
316 294 -315 0
-317 294 0
-317 -315 0
317 -294 315 0
-318 -316 0
-318 -317 0
318 316 317 0
-319 91 0
-319 222 0
319 -91 -222 0
-320 223 0
-320 319 0
320 -223 -319 0
-321 101 0
-321 -222 0
321 -101 222 0
-322 223 0
-322 321 0
322 -223 -321 0
-323 111 0
-323 -222 0
323 -111 222 0
-324 -223 0
-324 323 0
324 223 -323 0
-325 81 0
-325 222 0
325 -81 -222 0
-326 -223 0
-326 325 0
326 223 -325 0
-327 -324 0
-327 -326 0
327 324 326 0
-328 -322 0
-328 327 0
328 322 -327 0
-329 -320 0
-329 328 0
329 320 -328 0
-330 92 0
-330 222 0
330 -92 -222 0
-331 223 0
-331 330 0
331 -223 -330 0
-332 102 0
-332 -222 0
332 -102 222 0
-333 223 0
-333 332 0
333 -223 -332 0
-334 112 0
-334 -222 0
334 -112 222 0
-335 -223 0
-335 334 0
335 223 -334 0
-336 82 0
-336 222 0
336 -82 -222 0
-337 -223 0
-337 336 0
337 223 -336 0
-338 -335 0
-338 -337 0
338 335 337 0
-339 -333 0
-339 338 0
339 333 -338 0
-340 -331 0
-340 339 0
340 331 -339 0
-341 329 0
-341 -340 0
341 -329 340 0
-342 -329 0
-342 340 0
342 329 -340 0
-343 -341 0
-343 -342 0
343 341 342 0
-344 86 0
-344 222 0
344 -86 -222 0
-345 223 0
-345 344 0
345 -223 -344 0
-346 96 0
-346 -222 0
346 -96 222 0
-347 223 0
-347 346 0
347 -223 -346 0
-348 106 0
-348 -222 0
348 -106 222 0
-349 -223 0
-349 348 0
349 223 -348 0
-350 76 0
-350 222 0
350 -76 -222 0
-351 -223 0
-351 350 0
351 223 -350 0
-352 -349 0
-352 -351 0
352 349 351 0
-353 -347 0
-353 352 0
353 347 -352 0
-354 -345 0
-354 353 0
354 345 -353 0
-355 95 0
-355 222 0
355 -95 -222 0
-356 223 0
-356 355 0
356 -223 -355 0
-357 105 0
-357 -222 0
357 -105 222 0
-358 223 0
-358 357 0
358 -223 -357 0
-359 115 0
-359 -222 0
359 -115 222 0
-360 -223 0
-360 359 0
360 223 -359 0
-361 85 0
-361 222 0
361 -85 -222 0
-362 -223 0
-362 361 0
362 223 -361 0
-363 -360 0
-363 -362 0
363 360 362 0
-364 -358 0
-364 363 0
364 358 -363 0
-365 -356 0
-365 364 0
365 356 -364 0
-366 354 0
-366 -365 0
366 -354 365 0
-367 -354 0
-367 365 0
367 354 -365 0
-368 -366 0
-368 -367 0
368 366 367 0
-369 93 0
-369 222 0
369 -93 -222 0
-370 223 0
-370 369 0
370 -223 -369 0
-371 103 0
-371 -222 0
371 -103 222 0
-372 223 0
-372 371 0
372 -223 -371 0
-373 113 0
-373 -222 0
373 -113 222 0
-374 -223 0
-374 373 0
374 223 -373 0
-375 83 0
-375 222 0
375 -83 -222 0
-376 -223 0
-376 375 0
376 223 -375 0
-377 -374 0
-377 -376 0
377 374 376 0
-378 -372 0
-378 377 0
378 372 -377 0
-379 -370 0
-379 378 0
379 370 -378 0
-380 94 0
-380 222 0
380 -94 -222 0
-381 223 0
-381 380 0
381 -223 -380 0
-382 104 0
-382 -222 0
382 -104 222 0
-383 223 0
-383 382 0
383 -223 -382 0
-384 114 0
-384 -222 0
384 -114 222 0
-385 -223 0
-385 384 0
385 223 -384 0
-386 84 0
-386 222 0
386 -84 -222 0
-387 -223 0
-387 386 0
387 223 -386 0
-388 -385 0
-388 -387 0
388 385 387 0
-389 -383 0
-389 388 0
389 383 -388 0
-390 -381 0
-390 389 0
390 381 -389 0
-391 379 0
-391 -390 0
391 -379 390 0
-392 -379 0
-392 390 0
392 379 -390 0
-393 -391 0
-393 -392 0
393 391 392 0
-394 -368 0
-394 393 0
394 368 -393 0
-395 343 0
-395 394 0
395 -343 -394 0
-396 368 0
-396 393 0
396 -368 -393 0
-397 -343 0
-397 396 0
397 343 -396 0
-398 -395 0
-398 -397 0
398 395 397 0
-399 368 0
-399 -393 0
399 -368 393 0
-400 343 0
-400 399 0
400 -343 -399 0
-401 -368 0
-401 -393 0
401 368 393 0
-402 -343 0
-402 401 0
402 343 -401 0
-403 -400 0
-403 -402 0
403 400 402 0
-404 398 0
-404 403 0
404 -398 -403 0
-405 -318 0
-405 404 0
405 318 -404 0
-406 318 0
-406 -404 0
406 -318 404 0
-407 -405 0
-407 -406 0
407 405 406 0
-408 -30 0
-408 407 0
408 30 -407 0
-409 58 0
-409 194 0
409 -58 -194 0
-410 197 0
-410 409 0
410 -197 -409 0
-411 47 0
-411 -194 0
411 -47 194 0
-412 197 0
-412 411 0
412 -197 -411 0
-413 69 0
-413 -194 0
413 -69 194 0
-414 -197 0
-414 413 0
414 197 -413 0
-415 37 0
-415 194 0
415 -37 -194 0
-416 -197 0
-416 415 0
416 197 -415 0
-417 -414 0
-417 -416 0
417 414 416 0
-418 -412 0
-418 417 0
418 412 -417 0
-419 -410 0
-419 418 0
419 410 -418 0
-420 57 0
-420 194 0
420 -57 -194 0
-421 197 0
-421 420 0
421 -197 -420 0
-422 -194 0
-422 197 0
422 194 -197 0
-423 68 0
-423 -194 0
423 -68 194 0
-424 -197 0
-424 423 0
424 197 -423 0
-425 36 0
-425 194 0
425 -36 -194 0
-426 -197 0
-426 425 0
426 197 -425 0
-427 -424 0
-427 -426 0
427 424 426 0
-428 -422 0
-428 427 0
428 422 -427 0
-429 -421 0
-429 428 0
429 421 -428 0
-430 419 0
-430 -429 0
430 -419 429 0
-431 -419 0
-431 429 0
431 419 -429 0
-432 -430 0
-432 -431 0
432 430 431 0
-433 56 0
-433 194 0
433 -56 -194 0
-434 197 0
-434 433 0
434 -197 -433 0
-435 46 0
-435 -194 0
435 -46 194 0
-436 197 0
-436 435 0
436 -197 -435 0
-437 67 0
-437 -194 0
437 -67 194 0
-438 -197 0
-438 437 0
438 197 -437 0
-439 35 0
-439 194 0
439 -35 -194 0
-440 -197 0
-440 439 0
440 197 -439 0
-441 -438 0
-441 -440 0
441 438 440 0
-442 -436 0
-442 441 0
442 436 -441 0
-443 -434 0
-443 442 0
443 434 -442 0
-444 55 0
-444 194 0
444 -55 -194 0
-445 197 0
-445 444 0
445 -197 -444 0
-446 45 0
-446 -194 0
446 -45 194 0
-447 197 0
-447 446 0
447 -197 -446 0
-448 66 0
-448 -194 0
448 -66 194 0
-449 -197 0
-449 448 0
449 197 -448 0
-450 34 0
-450 194 0
450 -34 -194 0
-451 -197 0
-451 450 0
451 197 -450 0
-452 -449 0
-452 -451 0
452 449 451 0
-453 -447 0
-453 452 0
453 447 -452 0
-454 -445 0
-454 453 0
454 445 -453 0
-455 443 0
-455 -454 0
455 -443 454 0
-456 -443 0
-456 454 0
456 443 -454 0
-457 -455 0
-457 -456 0
457 455 456 0
-458 -432 0
-458 457 0
458 432 -457 0
-459 432 0
-459 -457 0
459 -432 457 0
-460 -458 0
-460 -459 0
460 458 459 0
-461 59 0
-461 194 0
461 -59 -194 0
-462 197 0
-462 461 0
462 -197 -461 0
-463 48 0
-463 -194 0
463 -48 194 0
-464 197 0
-464 463 0
464 -197 -463 0
-465 70 0
-465 -194 0
465 -70 194 0
-466 -197 0
-466 465 0
466 197 -465 0
-467 38 0
-467 194 0
467 -38 -194 0
-468 -197 0
-468 467 0
468 197 -467 0
-469 -466 0
-469 -468 0
469 466 468 0
-470 -464 0
-470 469 0
470 464 -469 0
-471 -462 0
-471 470 0
471 462 -470 0
-472 60 0
-472 194 0
472 -60 -194 0
-473 197 0
-473 472 0
473 -197 -472 0
-474 49 0
-474 -194 0
474 -49 194 0
-475 197 0
-475 474 0
475 -197 -474 0
-476 71 0
-476 -194 0
476 -71 194 0
-477 -197 0
-477 476 0
477 197 -476 0
-478 39 0
-478 194 0
478 -39 -194 0
-479 -197 0
-479 478 0
479 197 -478 0
-480 -477 0
-480 -479 0
480 477 479 0
-481 -475 0
-481 480 0
481 475 -480 0
-482 -473 0
-482 481 0
482 473 -481 0
-483 -471 0
-483 482 0
483 471 -482 0
-484 471 0
-484 -482 0
484 -471 482 0
-485 -483 0
-485 -484 0
485 483 484 0
-486 53 0
-486 194 0
486 -53 -194 0
-487 197 0
-487 486 0
487 -197 -486 0
-488 43 0
-488 -194 0
488 -43 194 0
-489 197 0
-489 488 0
489 -197 -488 0
-490 64 0
-490 -194 0
490 -64 194 0
-491 -197 0
-491 490 0
491 197 -490 0
-492 32 0
-492 194 0
492 -32 -194 0
-493 -197 0
-493 492 0
493 197 -492 0
-494 -491 0
-494 -493 0
494 491 493 0
-495 -489 0
-495 494 0
495 489 -494 0
-496 -487 0
-496 495 0
496 487 -495 0
-497 63 0
-497 194 0
497 -63 -194 0
-498 197 0
-498 497 0
498 -197 -497 0
-499 52 0
-499 -194 0
499 -52 194 0
-500 197 0
-500 499 0
500 -197 -499 0
-501 74 0
-501 -194 0
501 -74 194 0
-502 -197 0
-502 501 0
502 197 -501 0
-503 42 0
-503 194 0
503 -42 -194 0
-504 -197 0
-504 503 0
504 197 -503 0
-505 -502 0
-505 -504 0
505 502 504 0
-506 -500 0
-506 505 0
506 500 -505 0
-507 -498 0
-507 506 0
507 498 -506 0
-508 -496 0
-508 507 0
508 496 -507 0
-509 496 0
-509 -507 0
509 -496 507 0
-510 -508 0
-510 -509 0
510 508 509 0
-511 61 0
-511 194 0
511 -61 -194 0
-512 197 0
-512 511 0
512 -197 -511 0
-513 50 0
-513 -194 0
513 -50 194 0
-514 197 0
-514 513 0
514 -197 -513 0
-515 72 0
-515 -194 0
515 -72 194 0
-516 -197 0
-516 515 0
516 197 -515 0
-517 40 0
-517 194 0
517 -40 -194 0
-518 -197 0
-518 517 0
518 197 -517 0
-519 -516 0
-519 -518 0
519 516 518 0
-520 -514 0
-520 519 0
520 514 -519 0
-521 -512 0
-521 520 0
521 512 -520 0
-522 62 0
-522 194 0
522 -62 -194 0
-523 197 0
-523 522 0
523 -197 -522 0
-524 51 0
-524 -194 0
524 -51 194 0
-525 197 0
-525 524 0
525 -197 -524 0
-526 73 0
-526 -194 0
526 -73 194 0
-527 -197 0
-527 526 0
527 197 -526 0
-528 41 0
-528 194 0
528 -41 -194 0
-529 -197 0
-529 528 0
529 197 -528 0
-530 -527 0
-530 -529 0
530 527 529 0
-531 -525 0
-531 530 0
531 525 -530 0
-532 -523 0
-532 531 0
532 523 -531 0
-533 -521 0
-533 532 0
533 521 -532 0
-534 521 0
-534 -532 0
534 -521 532 0
-535 -533 0
-535 -534 0
535 533 534 0
-536 -510 0
-536 535 0
536 510 -535 0
-537 485 0
-537 536 0
537 -485 -536 0
-538 510 0
-538 535 0
538 -510 -535 0
-539 -485 0
-539 538 0
539 485 -538 0
-540 -537 0
-540 -539 0
540 537 539 0
-541 510 0
-541 -535 0
541 -510 535 0
-542 485 0
-542 541 0
542 -485 -541 0
-543 -510 0
-543 -535 0
543 510 535 0
-544 -485 0
-544 543 0
544 485 -543 0
-545 -542 0
-545 -544 0
545 542 544 0
-546 540 0
-546 545 0
546 -540 -545 0
-547 -460 0
-547 546 0
547 460 -546 0
-548 460 0
-548 -546 0
548 -460 546 0
-549 -547 0
-549 -548 0
549 547 548 0
-550 -30 0
-550 549 0
550 30 -549 0
-551 -408 0
-551 -550 0
551 408 550 0
-552 -269 0
-552 551 0
552 269 -551 0
-553 -231 0
-553 232 0
553 231 -232 0
-554 231 0
-554 -232 0
554 -231 232 0
-555 -553 0
-555 -554 0
555 553 554 0
-556 202 0
-556 -203 0
556 -202 203 0
-557 -202 0
-557 203 0
557 202 -203 0
-558 -556 0
-558 -557 0
558 556 557 0
-559 -555 0
-559 558 0
559 555 -558 0
-560 555 0
-560 -558 0
560 -555 558 0
-561 -559 0
-561 -560 0
561 559 560 0
-562 -229 0
-562 230 0
562 229 -230 0
-563 229 0
-563 -230 0
563 -229 230 0
-564 -562 0
-564 -563 0
564 562 563 0
-565 -225 0
-565 226 0
565 225 -226 0
-566 225 0
-566 -226 0
566 -225 226 0
-567 -565 0
-567 -566 0
567 565 566 0
-568 -227 0
-568 228 0
568 227 -228 0
-569 227 0
-569 -228 0
569 -227 228 0
-570 -568 0
-570 -569 0
570 568 569 0
-571 -567 0
-571 570 0
571 567 -570 0
-572 564 0
-572 571 0
572 -564 -571 0
-573 567 0
-573 570 0
573 -567 -570 0
-574 -564 0
-574 573 0
574 564 -573 0
-575 -572 0
-575 -574 0
575 572 574 0
-576 567 0
-576 -570 0
576 -567 570 0
-577 564 0
-577 576 0
577 -564 -576 0
-578 -567 0
-578 -570 0
578 567 570 0
-579 -564 0
-579 578 0
579 564 -578 0
-580 -577 0
-580 -579 0
580 577 579 0
-581 575 0
-581 580 0
581 -575 -580 0
-582 -561 0
-582 581 0
582 561 -581 0
-583 561 0
-583 -581 0
583 -561 581 0
-584 -582 0
-584 -583 0
584 582 583 0
-585 11 0
-585 584 0
585 -11 -584 0
-586 210 0
-586 -211 0
586 -210 211 0
-587 -210 0
-587 211 0
587 210 -211 0
-588 -586 0
-588 -587 0
588 586 587 0
-589 212 0
-589 -213 0
589 -212 213 0
-590 -212 0
-590 213 0
590 212 -213 0
-591 -589 0
-591 -590 0
591 589 590 0
-592 -588 0
-592 591 0
592 588 -591 0
-593 588 0
-593 -591 0
593 -588 591 0
-594 -592 0
-594 -593 0
594 592 593 0
-595 208 0
-595 -209 0
595 -208 209 0
-596 -208 0
-596 209 0
596 208 -209 0
-597 -595 0
-597 -596 0
597 595 596 0
-598 -205 0
-598 233 0
598 205 -233 0
-599 205 0
-599 -233 0
599 -205 233 0
-600 -598 0
-600 -599 0
600 598 599 0
-601 206 0
-601 -207 0
601 -206 207 0
-602 -206 0
-602 207 0
602 206 -207 0
-603 -601 0
-603 -602 0
603 601 602 0
-604 -600 0
-604 603 0
604 600 -603 0
-605 597 0
-605 604 0
605 -597 -604 0
-606 600 0
-606 603 0
606 -600 -603 0
-607 -597 0
-607 606 0
607 597 -606 0
-608 -605 0
-608 -607 0
608 605 607 0
-609 600 0
-609 -603 0
609 -600 603 0
-610 597 0
-610 609 0
610 -597 -609 0
-611 -600 0
-611 -603 0
611 600 603 0
-612 -597 0
-612 611 0
612 597 -611 0
-613 -610 0
-613 -612 0
613 610 612 0
-614 608 0
-614 613 0
614 -608 -613 0
-615 -594 0
-615 614 0
615 594 -614 0
-616 594 0
-616 -614 0
616 -594 614 0
-617 -615 0
-617 -616 0
617 615 616 0
-618 -585 0
-618 -617 0
618 585 617 0
-619 552 0
-619 618 0
619 -552 -618 0
-620 243 0
-620 619 0
620 -243 -619 0
-621 -204 0
-621 -329 0
621 204 329 0
-622 31 0
-622 280 0
622 -31 -280 0
-623 -621 0
-623 622 0
623 621 -622 0
-624 280 0
-624 621 0
624 -280 -621 0
-625 31 0
-625 624 0
625 -31 -624 0
-626 -213 0
-626 -625 0
626 213 625 0
-627 623 0
-627 626 0
627 -623 -626 0
-628 -390 0
-628 -625 0
628 390 625 0
-629 623 0
-629 628 0
629 -623 -628 0
-630 -627 0
-630 -629 0
630 627 629 0
-631 627 0
-631 629 0
631 -627 -629 0
-632 -630 0
-632 -631 0
632 630 631 0
-633 -454 0
-633 -625 0
633 454 625 0
-634 623 0
-634 633 0
634 -623 -633 0
-635 -211 0
-635 -625 0
635 211 625 0
-636 623 0
-636 635 0
636 -623 -635 0
-637 -634 0
-637 636 0
637 634 -636 0
-638 -215 0
-638 -625 0
638 215 625 0
-639 623 0
-639 638 0
639 -623 -638 0
-640 -379 0
-640 -625 0
640 379 625 0
-641 623 0
-641 640 0
641 -623 -640 0
-642 -639 0
-642 -641 0
642 639 641 0
-643 639 0
-643 641 0
643 -639 -641 0
-644 -642 0
-644 -643 0
644 642 643 0
-645 -212 0
-645 -625 0
645 212 625 0
-646 623 0
-646 645 0
646 -623 -645 0
-647 -354 0
-647 -625 0
647 354 625 0
-648 623 0
-648 647 0
648 -623 -647 0
-649 -646 0
-649 -648 0
649 646 648 0
-650 646 0
-650 648 0
650 -646 -648 0
-651 -649 0
-651 -650 0
651 649 650 0
-652 -644 0
-652 -651 0
652 644 651 0
-653 637 0
-653 652 0
653 -637 -652 0
-654 -632 0
-654 653 0
654 632 -653 0
-655 646 0
-655 -648 0
655 -646 648 0
-656 -632 0
-656 -644 0
656 632 644 0
-657 655 0
-657 656 0
657 -655 -656 0
-658 639 0
-658 -641 0
658 -639 641 0
-659 627 0
-659 -629 0
659 -627 629 0
-660 -644 0
-660 659 0
660 644 -659 0
-661 -658 0
-661 -660 0
661 658 660 0
-662 -657 0
-662 661 0
662 657 -661 0
-663 -654 0
-663 662 0
663 654 -662 0
-664 -209 0
-664 -625 0
664 209 625 0
-665 9 0
-665 664 0
665 -9 -664 0
-666 -429 0
-666 -625 0
666 429 625 0
-667 9 0
-667 666 0
667 -9 -666 0
-668 -665 0
-668 -667 0
668 665 667 0
-669 665 0
-669 667 0
669 -665 -667 0
-670 -668 0
-670 -669 0
670 668 669 0
-671 -217 0
-671 625 0
671 217 -625 0
-672 -206 0
-672 -625 0
672 206 625 0
-673 -671 0
-673 -672 0
673 671 672 0
-674 482 0
-674 -673 0
674 -482 673 0
-675 -210 0
-675 -625 0
675 210 625 0
-676 9 0
-676 675 0
676 -9 -675 0
-677 -443 0
-677 -625 0
677 443 625 0
-678 9 0
-678 677 0
678 -9 -677 0
-679 -676 0
-679 -678 0
679 676 678 0
-680 676 0
-680 678 0
680 -676 -678 0
-681 -679 0
-681 -680 0
681 679 680 0
-682 -219 0
-682 625 0
682 219 -625 0
-683 -208 0
-683 -625 0
683 208 625 0
-684 -682 0
-684 -683 0
684 682 683 0
-685 9 0
-685 -684 0
685 -9 684 0
-686 -419 0
-686 -625 0
686 419 625 0
-687 -419 0
-687 625 0
687 419 -625 0
-688 -686 0
-688 -687 0
688 686 687 0
-689 9 0
-689 -688 0
689 -9 688 0
-690 -685 0
-690 -689 0
690 685 689 0
-691 685 0
-691 689 0
691 -685 -689 0
-692 -690 0
-692 -691 0
692 690 691 0
-693 -218 0
-693 625 0
693 218 -625 0
-694 -207 0
-694 -625 0
694 207 625 0
-695 -693 0
-695 -694 0
695 693 694 0
-696 9 0
-696 -695 0
696 -9 695 0
-697 -471 0
-697 -625 0
697 471 625 0
-698 -471 0
-698 625 0
698 471 -625 0
-699 -697 0
-699 -698 0
699 697 698 0
-700 9 0
-700 -699 0
700 -9 699 0
-701 -696 0
-701 -700 0
701 696 700 0
-702 696 0
-702 700 0
702 -696 -700 0
-703 -701 0
-703 -702 0
703 701 702 0
-704 -692 0
-704 -703 0
704 692 703 0
-705 -681 0
-705 704 0
705 681 -704 0
-706 674 0
-706 705 0
706 -674 -705 0
-707 -670 0
-707 706 0
707 670 -706 0
-708 696 0
-708 -700 0
708 -696 700 0
-709 -681 0
-709 -692 0
709 681 692 0
-710 708 0
-710 709 0
710 -708 -709 0
-711 -670 0
-711 710 0
711 670 -710 0
-712 685 0
-712 -689 0
712 -685 689 0
-713 -670 0
-713 -681 0
713 670 681 0
-714 712 0
-714 713 0
714 -712 -713 0
-715 676 0
-715 -678 0
715 -676 678 0
-716 665 0
-716 -667 0
716 -665 667 0
-717 -681 0
-717 716 0
717 681 -716 0
-718 -715 0
-718 -717 0
718 715 717 0
-719 -714 0
-719 718 0
719 714 -718 0
-720 -711 0
-720 719 0
720 711 -719 0
-721 -707 0
-721 720 0
721 707 -720 0
-722 482 0
-722 673 0
722 -482 -673 0
-723 -482 0
-723 -673 0
723 482 673 0
-724 -722 0
-724 -723 0
724 722 723 0
-725 -670 0
-725 -724 0
725 670 724 0
-726 -692 0
-726 725 0
726 692 -725 0
-727 -681 0
-727 726 0
727 681 -726 0
-728 -703 0
-728 727 0
728 703 -727 0
-729 -213 0
-729 625 0
729 213 -625 0
-730 -202 0
-730 -625 0
730 202 625 0
-731 -729 0
-731 -730 0
731 729 730 0
-732 496 0
-732 -731 0
732 -496 731 0
-733 -216 0
-733 625 0
733 216 -625 0
-734 -205 0
-734 -625 0
734 205 625 0
-735 -733 0
-735 -734 0
735 733 734 0
-736 521 0
-736 735 0
736 -521 -735 0
-737 -521 0
-737 -735 0
737 521 735 0
-738 -736 0
-738 -737 0
738 736 737 0
-739 -215 0
-739 625 0
739 215 -625 0
-740 -203 0
-740 -625 0
740 203 625 0
-741 -739 0
-741 -740 0
741 739 740 0
-742 532 0
-742 741 0
742 -532 -741 0
-743 -532 0
-743 -741 0
743 532 741 0
-744 -742 0
-744 -743 0
744 742 743 0
-745 -738 0
-745 -744 0
745 738 744 0
-746 732 0
-746 745 0
746 -732 -745 0
-747 521 0
-747 -735 0
747 -521 735 0
-748 532 0
-748 -741 0
748 -532 741 0
-749 -738 0
-749 748 0
749 738 -748 0
-750 -747 0
-750 -749 0
750 747 749 0
-751 -746 0
-751 750 0
751 746 -750 0
-752 728 0
-752 -751 0
752 -728 751 0
-753 721 0
-753 -752 0
753 -721 752 0
-754 -663 0
-754 753 0
754 663 -753 0
-755 -634 0
-755 -636 0
755 634 636 0
-756 634 0
-756 636 0
756 -634 -636 0
-757 -755 0
-757 -756 0
757 755 756 0
-758 -632 0
-758 -757 0
758 632 757 0
-759 -651 0
-759 758 0
759 651 -758 0
-760 -644 0
-760 759 0
760 644 -759 0
-761 663 0
-761 -760 0
761 -663 760 0
-762 -753 0
-762 -761 0
762 753 761 0
-763 -754 0
-763 -762 0
763 754 762 0
-764 -200 0
-764 -507 0
764 200 507 0
-765 -195 0
-765 532 0
765 195 -532 0
-766 510 0
-766 -765 0
766 -510 765 0
-767 535 0
-767 766 0
767 -535 -766 0
-768 510 0
-768 765 0
768 -510 -765 0
-769 -535 0
-769 768 0
769 535 -768 0
-770 -767 0
-770 -769 0
770 767 769 0
-771 -510 0
-771 765 0
771 510 -765 0
-772 535 0
-772 771 0
772 -535 -771 0
-773 -510 0
-773 -765 0
773 510 765 0
-774 -535 0
-774 773 0
774 535 -773 0
-775 -772 0
-775 -774 0
775 772 774 0
-776 770 0
-776 775 0
776 -770 -775 0
-777 -460 0
-777 776 0
777 460 -776 0
-778 460 0
-778 -776 0
778 -460 776 0
-779 -777 0
-779 -778 0
779 777 778 0
-780 200 0
-780 -779 0
780 -200 779 0
-781 -764 0
-781 -780 0
781 764 780 0
-782 -496 0
-782 532 0
782 496 -532 0
-783 496 0
-783 -532 0
783 -496 532 0
-784 -782 0
-784 -783 0
784 782 783 0
-785 -765 0
-785 -784 0
785 765 784 0
-786 765 0
-786 784 0
786 -765 -784 0
-787 -785 0
-787 -786 0
787 785 786 0
-788 507 0
-788 -787 0
788 -507 787 0
-789 -507 0
-789 787 0
789 507 -787 0
-790 -788 0
-790 -789 0
790 788 789 0
-791 -199 0
-791 -790 0
791 199 790 0
-792 199 0
-792 -507 0
792 -199 507 0
-793 -791 0
-793 -792 0
793 791 792 0
-794 10 0
-794 -200 0
794 -10 200 0
-795 10 0
-795 200 0
795 -10 -200 0
-796 -794 0
-796 -795 0
796 794 795 0
-797 -13 0
-797 17 0
797 13 -17 0
-798 13 0
-798 -419 0
798 -13 419 0
-799 -797 0
-799 -798 0
799 797 798 0
-800 208 0
-800 -799 0
800 -208 799 0
-801 -208 0
-801 799 0
801 208 -799 0
-802 -800 0
-802 -801 0
802 800 801 0
-803 -13 0
-803 18 0
803 13 -18 0
-804 13 0
-804 -429 0
804 -13 429 0
-805 -803 0
-805 -804 0
805 803 804 0
-806 209 0
-806 -805 0
806 -209 805 0
-807 -209 0
-807 805 0
807 209 -805 0
-808 -806 0
-808 -807 0
808 806 807 0
-809 7 0
-809 -13 0
809 -7 13 0
-810 13 0
-810 -443 0
810 -13 443 0
-811 -809 0
-811 -810 0
811 809 810 0
-812 210 0
-812 -811 0
812 -210 811 0
-813 -210 0
-813 811 0
813 210 -811 0
-814 -812 0
-814 -813 0
814 812 813 0
-815 20 0
-815 -24 0
815 -20 24 0
-816 24 0
-816 -354 0
816 -24 354 0
-817 -815 0
-817 -816 0
817 815 816 0
-818 212 0
-818 -817 0
818 -212 817 0
-819 -212 0
-819 817 0
819 212 -817 0
-820 -818 0
-820 -819 0
820 818 819 0
-821 -13 0
-821 19 0
821 13 -19 0
-822 13 0
-822 -454 0
822 -13 454 0
-823 -821 0
-823 -822 0
823 821 822 0
-824 211 0
-824 -823 0
824 -211 823 0
-825 -211 0
-825 823 0
825 211 -823 0
-826 -824 0
-826 -825 0
826 824 825 0
-827 820 0
-827 826 0
827 -820 -826 0
-828 814 0
-828 827 0
828 -814 -827 0
-829 808 0
-829 828 0
829 -808 -828 0
-830 802 0
-830 829 0
830 -802 -829 0
-831 -13 0
-831 14 0
831 13 -14 0
-832 13 0
-832 -496 0
832 -13 496 0
-833 -831 0
-833 -832 0
833 831 832 0
-834 202 0
-834 -833 0
834 -202 833 0
-835 -202 0
-835 833 0
835 202 -833 0
-836 -834 0
-836 -835 0
836 834 835 0
-837 5 0
-837 -13 0
837 -5 13 0
-838 13 0
-838 -532 0
838 -13 532 0
-839 -837 0
-839 -838 0
839 837 838 0
-840 203 0
-840 -839 0
840 -203 839 0
-841 -203 0
-841 839 0
841 203 -839 0
-842 -840 0
-842 -841 0
842 840 841 0
-843 -13 0
-843 15 0
843 13 -15 0
-844 13 0
-844 -521 0
844 -13 521 0
-845 -843 0
-845 -844 0
845 843 844 0
-846 205 0
-846 -845 0
846 -205 845 0
-847 -205 0
-847 845 0
847 205 -845 0
-848 -846 0
-848 -847 0
848 846 847 0
-849 -13 0
-849 16 0
849 13 -16 0
-850 13 0
-850 -471 0
850 -13 471 0
-851 -849 0
-851 -850 0
851 849 850 0
-852 207 0
-852 -851 0
852 -207 851 0
-853 -207 0
-853 851 0
853 207 -851 0
-854 -852 0
-854 -853 0
854 852 853 0
-855 6 0
-855 -13 0
855 -6 13 0
-856 13 0
-856 -482 0
856 -13 482 0
-857 -855 0
-857 -856 0
857 855 856 0
-858 206 0
-858 -857 0
858 -206 857 0
-859 -206 0
-859 857 0
859 206 -857 0
-860 -858 0
-860 -859 0
860 858 859 0
-861 854 0
-861 860 0
861 -854 -860 0
-862 848 0
-862 861 0
862 -848 -861 0
-863 842 0
-863 862 0
863 -842 -862 0
-864 836 0
-864 863 0
864 -836 -863 0
-865 830 0
-865 864 0
865 -830 -864 0
-866 23 0
-866 -24 0
866 -23 24 0
-867 24 0
-867 -312 0
867 -24 312 0
-868 -866 0
-868 -867 0
868 866 867 0
-869 -24 0
-869 28 0
869 24 -28 0
-870 24 0
-870 -291 0
870 -24 291 0
-871 -869 0
-871 -870 0
871 869 870 0
-872 219 0
-872 -871 0
872 -219 871 0
-873 -219 0
-873 871 0
873 219 -871 0
-874 -872 0
-874 -873 0
874 872 873 0
-875 -868 0
-875 874 0
875 868 -874 0
-876 -24 0
-876 25 0
876 24 -25 0
-877 24 0
-877 -390 0
877 -24 390 0
-878 -876 0
-878 -877 0
878 876 877 0
-879 213 0
-879 -878 0
879 -213 878 0
-880 -213 0
-880 878 0
880 213 -878 0
-881 -879 0
-881 -880 0
881 879 880 0
-882 21 0
-882 -24 0
882 -21 24 0
-883 24 0
-883 -379 0
883 -24 379 0
-884 -882 0
-884 -883 0
884 882 883 0
-885 215 0
-885 -884 0
885 -215 884 0
-886 -215 0
-886 884 0
886 215 -884 0
-887 -885 0
-887 -886 0
887 885 886 0
-888 -24 0
-888 26 0
888 24 -26 0
-889 24 0
-889 -340 0
889 -24 340 0
-890 -888 0
-890 -889 0
890 888 889 0
-891 216 0
-891 -890 0
891 -216 890 0
-892 -216 0
-892 890 0
892 216 -890 0
-893 -891 0
-893 -892 0
893 891 892 0
-894 -24 0
-894 27 0
894 24 -27 0
-895 24 0
-895 -280 0
895 -24 280 0
-896 -894 0
-896 -895 0
896 894 895 0
-897 218 0
-897 -896 0
897 -218 896 0
-898 -218 0
-898 896 0
898 218 -896 0
-899 -897 0
-899 -898 0
899 897 898 0
-900 22 0
-900 -24 0
900 -22 24 0
-901 24 0
-901 -329 0
901 -24 329 0
-902 -900 0
-902 -901 0
902 900 901 0
-903 217 0
-903 -902 0
903 -217 902 0
-904 -217 0
-904 902 0
904 217 -902 0
-905 -903 0
-905 -904 0
905 903 904 0
-906 899 0
-906 905 0
906 -899 -905 0
-907 893 0
-907 906 0
907 -893 -906 0
-908 887 0
-908 907 0
908 -887 -907 0
-909 881 0
-909 908 0
909 -881 -908 0
-910 875 0
-910 909 0
910 -875 -909 0
-911 865 0
-911 910 0
911 -865 -910 0
-912 -796 0
-912 911 0
912 796 -911 0
-913 -221 0
-913 -301 0
913 221 301 0
-914 -221 0
-914 -913 0
914 221 913 0
-915 -301 0
-915 -913 0
915 301 913 0
-916 -914 0
-916 -915 0
916 914 915 0
-917 -220 0
-917 -312 0
917 220 312 0
-918 -220 0
-918 -917 0
918 220 917 0
-919 -312 0
-919 -917 0
919 312 917 0
-920 -918 0
-920 -919 0
920 918 919 0
-921 916 0
-921 920 0
921 -916 -920 0
-922 -200 0
-922 -496 0
922 200 496 0
-923 200 0
-923 -765 0
923 -200 765 0
-924 -922 0
-924 -923 0
924 922 923 0
-925 -199 0
-925 -765 0
925 199 765 0
-926 199 0
-926 -532 0
926 -199 532 0
-927 -925 0
-927 -926 0
927 925 926 0
-928 -200 0
-928 -521 0
928 200 521 0
-929 200 0
-929 -471 0
929 -200 471 0
-930 -928 0
-930 -929 0
930 928 929 0
-931 -200 0
-931 -532 0
931 200 532 0
-932 200 0
-932 -482 0
932 -200 482 0
-933 -931 0
-933 -932 0
933 931 932 0
-934 2 0
-934 4 0
934 -2 -4 0
-935 193 0
-935 198 0
935 -193 -198 0
-936 243 0
-936 935 0
936 -243 -935 0
-937 -934 0
-937 936 0
937 934 -936 0
-938 29 0
-938 935 0
938 -29 -935 0
-939 243 0
-939 938 0
939 -243 -938 0
-940 199 0
-940 -496 0
940 -199 496 0
-941 199 0
-941 -940 0
941 -199 940 0
-942 237 0
-942 241 0
942 -237 -241 0
-943 8 0
-943 198 0
943 -8 -198 0
-944 224 0
-944 943 0
944 -224 -943 0
-945 196 0
-945 943 0
945 -196 -943 0
-946 75 0
-946 192 0
946 -75 -192 0
-947 3 0
-947 12 0
947 -3 -12 0
-948 198 0
-948 947 0
948 -198 -947 0
-949 218 0
-949 219 0
949 -218 -219 0
-950 217 0
-950 949 0
950 -217 -949 0
-951 216 0
-951 950 0
951 -216 -950 0
-952 -116 0
-952 -117 0
952 116 117 0
-953 -118 0
-953 952 0
953 118 -952 0
-954 -119 0
-954 953 0
954 119 -953 0
-955 -120 0
-955 954 0
955 120 -954 0
-956 -121 0
-956 955 0
956 121 -955 0
-957 -122 0
-957 956 0
957 122 -956 0
-958 -123 0
-958 957 0
958 123 -957 0
-959 -124 0
-959 958 0
959 124 -958 0
-960 -125 0
-960 959 0
960 125 -959 0
-961 -126 0
-961 960 0
961 126 -960 0
-962 -127 0
-962 961 0
962 127 -961 0
-963 -128 0
-963 962 0
963 128 -962 0
-964 -129 0
-964 963 0
964 129 -963 0
-965 -130 0
-965 964 0
965 130 -964 0
-966 -131 0
-966 965 0
966 131 -965 0
-967 -132 0
-967 966 0
967 132 -966 0
-968 -133 0
-968 967 0
968 133 -967 0
-969 -134 0
-969 968 0
969 134 -968 0
-970 -135 0
-970 969 0
970 135 -969 0
-971 -136 0
-971 970 0
971 136 -970 0
-972 -137 0
-972 971 0
972 137 -971 0
-973 -138 0
-973 972 0
973 138 -972 0
-974 -139 0
-974 973 0
974 139 -973 0
-975 -140 0
-975 974 0
975 140 -974 0
-976 -141 0
-976 975 0
976 141 -975 0
-977 -142 0
-977 976 0
977 142 -976 0
-978 -143 0
-978 977 0
978 143 -977 0
-979 -144 0
-979 978 0
979 144 -978 0
-980 -145 0
-980 979 0
980 145 -979 0
-981 -146 0
-981 980 0
981 146 -980 0
-982 -147 0
-982 981 0
982 147 -981 0
-983 -148 0
-983 982 0
983 148 -982 0
-984 -149 0
-984 983 0
984 149 -983 0
-985 -150 0
-985 984 0
985 150 -984 0
-986 -151 0
-986 985 0
986 151 -985 0
-987 -152 0
-987 986 0
987 152 -986 0
-988 -153 0
-988 987 0
988 153 -987 0
-989 -154 0
-989 988 0
989 154 -988 0
-990 -155 0
-990 989 0
990 155 -989 0
-991 -156 0
-991 990 0
991 156 -990 0
-992 -157 0
-992 991 0
992 157 -991 0
-993 -158 0
-993 992 0
993 158 -992 0
-994 -159 0
-994 993 0
994 159 -993 0
-995 -160 0
-995 994 0
995 160 -994 0
-996 -161 0
-996 995 0
996 161 -995 0
-997 -162 0
-997 996 0
997 162 -996 0
-998 -163 0
-998 997 0
998 163 -997 0
-999 -164 0
-999 998 0
999 164 -998 0
-1000 -165 0
-1000 999 0
1000 165 -999 0
-1001 -166 0
-1001 1000 0
1001 166 -1000 0
-1002 -167 0
-1002 1001 0
1002 167 -1001 0
-1003 -168 0
-1003 1002 0
1003 168 -1002 0
-1004 -169 0
-1004 1003 0
1004 169 -1003 0
-1005 -170 0
-1005 1004 0
1005 170 -1004 0
-1006 -171 0
-1006 1005 0
1006 171 -1005 0
-1007 -172 0
-1007 1006 0
1007 172 -1006 0
-1008 -173 0
-1008 1007 0
1008 173 -1007 0
-1009 -174 0
-1009 1008 0
1009 174 -1008 0
-1010 -175 0
-1010 1009 0
1010 175 -1009 0
-1011 -176 0
-1011 1010 0
1011 176 -1010 0
-1012 -177 0
-1012 1011 0
1012 177 -1011 0
-1013 -178 0
-1013 1012 0
1013 178 -1012 0
-1014 -179 0
-1014 1013 0
1014 179 -1013 0
-1015 -180 0
-1015 1014 0
1015 180 -1014 0
-1016 -181 0
-1016 1015 0
1016 181 -1015 0
-1017 -182 0
-1017 1016 0
1017 182 -1016 0
-1018 -183 0
-1018 1017 0
1018 183 -1017 0
-1019 -184 0
-1019 1018 0
1019 184 -1018 0
-1020 -185 0
-1020 1019 0
1020 185 -1019 0
-1021 -186 0
-1021 1020 0
1021 186 -1020 0
-1022 -187 0
-1022 1021 0
1022 187 -1021 0
-1023 -188 0
-1023 1022 0
1023 188 -1022 0
-1024 -189 0
-1024 1023 0
1024 189 -1023 0
-1025 -190 0
-1025 1024 0
1025 190 -1024 0
-1026 -191 0
-1026 1025 0
1026 191 -1025 0
-1027 -192 0
-1027 1026 0
1027 192 -1026 0
-1028 -192 0
-1028 1027 0
1028 192 -1027 0
-1029 -192 0
-1029 1028 0
1029 192 -1028 0
-1030 -201 0
-1030 1029 0
1030 201 -1029 0
-1031 -201 0
-1031 1030 0
1031 201 -1030 0
-1032 -214 0
-1032 1031 0
1032 214 -1031 0
-1033 -214 0
-1033 1032 0
1033 214 -1032 0
-1034 -214 0
-1034 1033 0
1034 214 -1033 0
-1035 33 0
-1035 1034 0
1035 -33 -1034 0
-1036 107 0
-1036 1035 0
1036 -107 -1035 0
-1037 65 0
-1037 1036 0
1037 -65 -1036 0
-1038 77 0
-1038 1037 0
1038 -77 -1037 0
-1039 54 0
-1039 1038 0
1039 -54 -1038 0
-1040 97 0
-1040 1039 0
1040 -97 -1039 0
-1041 44 0
-1041 1040 0
1041 -44 -1040 0
-1042 87 0
-1042 1041 0
1042 -87 -1041 0
-1043 951 0
-1043 1042 0
1043 -951 -1042 0
-1044 948 0
-1044 1043 0
1044 -948 -1043 0
-1045 -192 0
-1045 1044 0
1045 192 -1044 0
-1046 -946 0
-1046 1045 0
1046 946 -1045 0
-1047 943 0
-1047 1046 0
1047 -943 -1046 0
-1048 945 0
-1048 1047 0
1048 -945 -1047 0
-1049 944 0
-1049 1048 0
1049 -944 -1048 0
-1050 -942 0
-1050 1049 0
1050 942 -1049 0
-1051 942 0
-1051 1050 0
1051 -942 -1050 0
-1052 -243 0
-1052 1051 0
1052 243 -1051 0
-1053 -280 0
-1053 1052 0
1053 280 -1052 0
-1054 -291 0
-1054 1053 0
1054 291 -1053 0
-1055 -329 0
-1055 1054 0
1055 329 -1054 0
-1056 -419 0
-1056 1055 0
1056 419 -1055 0
-1057 -471 0
-1057 1056 0
1057 471 -1056 0
-1058 -482 0
-1058 1057 0
1058 482 -1057 0
-1059 941 0
-1059 1058 0
1059 -941 -1058 0
-1060 939 0
-1060 1059 0
1060 -939 -1059 0
-1061 937 0
-1061 1060 0
1061 -937 -1060 0
-1062 521 0
-1062 1061 0
1062 -521 -1061 0
-1063 482 0
-1063 1062 0
1063 -482 -1062 0
-1064 471 0
-1064 1063 0
1064 -471 -1063 0
-1065 419 0
-1065 1064 0
1065 -419 -1064 0
-1066 429 0
-1066 1065 0
1066 -429 -1065 0
-1067 443 0
-1067 1066 0
1067 -443 -1066 0
-1068 454 0
-1068 1067 0
1068 -454 -1067 0
-1069 933 0
-1069 1068 0
1069 -933 -1068 0
-1070 933 0
-1070 1069 0
1070 -933 -1069 0
-1071 930 0
-1071 1070 0
1071 -930 -1070 0
-1072 930 0
-1072 1071 0
1072 -930 -1071 0
-1073 927 0
-1073 1072 0
1073 -927 -1072 0
-1074 924 0
-1074 1073 0
1074 -924 -1073 0
-1075 924 0
-1075 1074 0
1075 -924 -1074 0
-1076 921 0
-1076 1075 0
1076 -921 -1075 0
-1077 -585 0
-1077 1076 0
1077 585 -1076 0
-1078 -269 0
-1078 1077 0
1078 269 -1077 0
-1079 -617 0
-1079 1078 0
1079 617 -1078 0
-1080 -912 0
-1080 1079 0
1080 912 -1079 0
-1081 912 0
-1081 1080 0
1081 -912 -1080 0
-1082 793 0
-1082 1081 0
1082 -793 -1081 0
-1083 -408 0
-1083 1082 0
1083 408 -1082 0
-1084 781 0
-1084 1083 0
1084 -781 -1083 0
-1085 781 0
-1085 1084 0
1085 -781 -1084 0
-1086 -550 0
-1086 1085 0
1086 550 -1085 0
-1087 763 0
-1087 1086 0
1087 -763 -1086 0
-1088 1 0
-1088 1087 0
1088 -1 -1087 0
-1089 -620 0
-1089 1088 0
1089 620 -1088 0
-1090 620 0
-1090 1089 0
1090 -620 -1089 0
-1090 0
